(set-logic QF_UF)
(declare-fun A0 () Bool)
(declare-fun A2 () Bool)
(declare-fun A4 () Bool)
(declare-fun A5 () Bool)
(declare-fun A6 () Bool)
(declare-fun A7 () Bool)
(declare-fun A8 () Bool)
(declare-fun A9 () Bool)
(declare-fun A10 () Bool)
(declare-fun A11 () Bool)
(declare-fun A12 () Bool)
(declare-fun A13 () Bool)
(declare-fun A14 () Bool)
(declare-fun A15 () Bool)
(declare-fun A16 () Bool)
(declare-fun A17 () Bool)
(declare-fun A18 () Bool)
(declare-fun A19 () Bool)
(declare-fun A20 () Bool)
(declare-fun A21 () Bool)
(declare-fun A22 () Bool)
(declare-fun A23 () Bool)
(declare-fun A24 () Bool)
(assert (let ((.def_0 (not A15))) (let ((.def_1 (or .def_0 A24))) (let ((.def_2 (not .def_1))) (let ((.def_3 (not A4))) (let ((.def_4 (= A12 .def_3))) (let ((.def_5 (not .def_4))) (let ((.def_6 (or .def_5 .def_2))) (let ((.def_7 (not .def_6))) (let ((.def_8 (not A2))) (let ((.def_9 (and .def_8 A12))) (let ((.def_10 (or A16 A11))) (let ((.def_11 (not .def_10))) (let ((.def_12 (and .def_11 .def_9))) (let ((.def_13 (not .def_12))) (let ((.def_14 (and .def_13 .def_7))) (let ((.def_15 (not .def_14))) (let ((.def_16 (not A14))) (let ((.def_17 (not A13))) (let ((.def_18 (and .def_17 .def_16))) (let ((.def_19 (not A24))) (let ((.def_20 (and .def_19 A17))) (let ((.def_21 (not .def_20))) (let ((.def_22 (and .def_21 .def_18))) (let ((.def_23 (or A18 A21))) (let ((.def_24 (or A0 A22))) (let ((.def_25 (and .def_24 .def_23))) (let ((.def_26 (and .def_25 .def_22))) (let ((.def_27 (or .def_26 .def_15))) (let ((.def_28 (not A11))) (let ((.def_29 (= .def_28 A5))) (let ((.def_30 (not .def_29))) (let ((.def_31 (not A9))) (let ((.def_32 (not A5))) (let ((.def_33 (or .def_32 .def_31))) (let ((.def_34 (not .def_33))) (let ((.def_35 (or .def_34 .def_30))) (let ((.def_36 (not A17))) (let ((.def_37 (or .def_36 .def_17))) (let ((.def_38 (and .def_3 A23))) (let ((.def_39 (not .def_38))) (let ((.def_40 (and .def_39 .def_37))) (let ((.def_41 (or .def_40 .def_35))) (let ((.def_42 (not .def_41))) (let ((.def_43 (or A2 .def_31))) (let ((.def_44 (not A7))) (let ((.def_45 (and A0 .def_44))) (let ((.def_46 (and .def_45 .def_43))) (let ((.def_47 (not .def_46))) (let ((.def_48 (or A5 A10))) (let ((.def_49 (not A10))) (let ((.def_50 (= A0 .def_49))) (let ((.def_51 (not .def_50))) (let ((.def_52 (and .def_51 .def_48))) (let ((.def_53 (not .def_52))) (let ((.def_54 (and .def_53 .def_47))) (let ((.def_55 (not .def_54))) (let ((.def_56 (or .def_55 .def_42))) (let ((.def_57 (= .def_56 .def_27))) (let ((.def_58 (not .def_57))) (let ((.def_59 (not A0))) (let ((.def_60 (or .def_16 .def_59))) (let ((.def_61 (or A8 .def_31))) (let ((.def_62 (or .def_61 .def_60))) (let ((.def_63 (not A6))) (let ((.def_64 (or .def_63 A11))) (let ((.def_65 (and A2 A10))) (let ((.def_66 (not .def_65))) (let ((.def_67 (or .def_66 .def_64))) (let ((.def_68 (or .def_67 .def_62))) (let ((.def_69 (and .def_16 A19))) (let ((.def_70 (not .def_69))) (let ((.def_71 (not A20))) (let ((.def_72 (or .def_0 .def_71))) (let ((.def_73 (not .def_72))) (let ((.def_74 (or .def_73 .def_70))) (let ((.def_75 (not A16))) (let ((.def_76 (= A19 .def_75))) (let ((.def_77 (or A17 .def_49))) (let ((.def_78 (not .def_77))) (let ((.def_79 (and .def_78 .def_76))) (let ((.def_80 (or .def_79 .def_74))) (let ((.def_81 (not .def_80))) (let ((.def_82 (= .def_81 .def_68))) (let ((.def_83 (and A6 A12))) (let ((.def_84 (not .def_83))) (let ((.def_85 (not A8))) (let ((.def_86 (or .def_85 .def_16))) (let ((.def_87 (not .def_86))) (let ((.def_88 (or .def_87 .def_84))) (let ((.def_89 (or A6 .def_59))) (let ((.def_90 (not .def_89))) (let ((.def_91 (or .def_85 .def_36))) (let ((.def_92 (not .def_91))) (let ((.def_93 (or .def_92 .def_90))) (let ((.def_94 (not .def_93))) (let ((.def_95 (and .def_94 .def_88))) (let ((.def_96 (not .def_95))) (let ((.def_97 (not A12))) (let ((.def_98 (= .def_31 .def_97))) (let ((.def_99 (not .def_98))) (let ((.def_100 (= A14 A23))) (let ((.def_101 (and .def_100 .def_99))) (let ((.def_102 (and A16 .def_16))) (let ((.def_103 (not .def_102))) (let ((.def_104 (and A11 A9))) (let ((.def_105 (= .def_104 .def_103))) (let ((.def_106 (not .def_105))) (let ((.def_107 (or .def_106 .def_101))) (let ((.def_108 (= .def_107 .def_96))) (let ((.def_109 (not .def_108))) (let ((.def_110 (and .def_109 .def_82))) (let ((.def_111 (not .def_110))) (let ((.def_112 (or .def_111 .def_58))) (let ((.def_113 (not .def_112))) .def_113)))))))))))))))))))))))))))))))))))))))))))))))))))))))))))))))))))))))))))))))))))))))))))))))))))))))))))))))))))
(check-sat)
